0000000000000000
0000000000000000
0011111111100000
0011111111100000
0111111111110000
0000000001110000
0000000000110000
0000000000110000
0000000000110000
0000000000110000
0000000000110000
0000000001111010
0011111111111111
0111111111111110
0000000000000000
0000000000000000
